     Program PWSCF v.6.1 (svn rev. 13369) starts on  6Dec2017 at 19:17:30

     Current dimensions of program PWSCF are:
     Max number of different atomic species (ntypx) = 10
     Max number of k-points (npk) =  40000
     Max angular momentum in pseudopotentials (lmaxx) =  3

     Subspace diagonalization in iterative solution of the eigenvalue problem:
     a serial algorithm will be used

   Info: using nr1, nr2, nr3 values from input

     bravais-lattice index     =            0
     lattice parameter (alat)  =      11.2375  a.u.
     unit-cell volume          =     366.7997 (a.u.)^3
     number of atoms/cell      =            2
     number of atomic types    =            1
     number of electrons       =        28.00
     number of Kohn-Sham states=           18
     kinetic-energy cutoff     =      50.0000  Ry
     charge density cutoff     =     500.0000  Ry
     convergence threshold     =      1.0E-08
     mixing beta               =       0.7000
     number of iterations used =            8  plain     mixing
     Exchange-correlation      =  SLA  PW   PBX  PBC ( 1  4  3  4 0 0)
     nstep                     =           50

     celldm(1)=  11.237464  celldm(2)=   0.000000  celldm(3)=   0.000000
     celldm(4)=   0.000000  celldm(5)=   0.000000  celldm(6)=   0.000000

     crystal axes: (cart. coord. in units of alat)
               a(1) = (   0.986020  -0.000000  -0.000000 )
               a(2) = (  -0.000000   0.986020  -0.000000 )
               a(3) = (   0.493010   0.493010   0.265859 )

     reciprocal axes: (cart. coord. in units 2 pi/alat)
               b(1) = (  1.014178  0.000000 -1.880693 )
               b(2) = (  0.000000  1.014178 -1.880693 )
               b(3) = (  0.000000  0.000000  3.761386 )

     PseudoPot. # 1 for Sn read from file:
     /home/s1333534/quantum_espresso/qe-6.1/pseudo/sn_pbe_v1.4.uspp.F.UPF
     MD5 check sum: 469debedee59599fedebd795477fea03
     Pseudo is Ultrasoft + core correction, Zval = 14.0
     Generated by new atomic code, or converted to UPF format
     Using radial grid of  891 points,  6 beta functions with:
                l(1) =   0
                l(2) =   0
                l(3) =   1
                l(4) =   1
                l(5) =   2
                l(6) =   2
     Q(r) pseudized with  8 coefficients,  rinner =    1.350   1.350   1.350
                                                       1.350   1.350

     atomic species   valence    mass     pseudopotential
        Sn            14.00   118.71000     Sn( 1.00)

     16 Sym. Ops., with inversion, found (12 have fractional translation)

   Cartesian axes

     site n.     atom                  positions (alat units)
         1           Sn  tau(   1) = (   0.9860205   1.2325256   0.1993946  )
         2           Sn  tau(   2) = (   0.4930102   0.2465051   0.0664649  )

     number of k points=   687  Marzari-Vanderbilt smearing, width (Ry)=  0.0200

     Number of k-points >= 100: set verbosity='high' to print them.

     Initial potential from superposition of free atoms

     starting charge   25.99991, renormalised to   28.00000
     Starting wfc are   18 randomized atomic wfcs

     Self-consistent Calculation

     iteration #  1     ecut=    50.00 Ry     beta=0.70
     Davidson diagonalization with overlap
     ethr =  1.00E-02,  avg # of iterations =  3.4

     total energy              =    -317.56745739 Ry
     Harris-Foulkes estimate   =    -319.49800101 Ry
     estimated scf accuracy    <       2.36461525 Ry

[...]

     End of self-consistent calculation

     Number of k-points >= 100: set verbosity='high' to print the bands.

     the Fermi energy is    10.7197 ev

!    total energy              =    -318.48260215 Ry
     Harris-Foulkes estimate   =    -318.48260215 Ry
     estimated scf accuracy    <          4.8E-09 Ry

     The total energy is the sum of the following terms:

     one-electron contribution =    -111.35838896 Ry
     hartree contribution      =      76.10417786 Ry
     xc contribution           =     -86.02593061 Ry
     ewald contribution        =    -197.20263782 Ry
     smearing contrib. (-TS)   =       0.00017737 Ry

     convergence has been achieved in   6 iterations

     Forces acting on atoms (cartesian axes, Ry/au):

     atom    1 type  1   force =     0.00000000    0.00000000   -0.00000000
     atom    2 type  1   force =     0.00000000    0.00000000    0.00000000

     Total force =     0.000000     Total SCF correction =     0.000000

     Computing stress (Cartesian axis) and pressure

          total   stress  (Ry/bohr**3)                   (kbar)     P=    0.47
   0.00000321   0.00000000   0.00000000          0.47      0.00      0.00
   0.00000000   0.00000321   0.00000000          0.00      0.47      0.00
   0.00000000   0.00000000   0.00000311          0.00      0.00      0.46

     BFGS Geometry Optimization

     bfgs converged in   1 scf cycles and   0 bfgs steps
     (criteria: energy <  1.0E-04 Ry, force <  1.0E-03Ry/Bohr, cell <  5.0E-01kbar)

     End of BFGS Geometry Optimization

     Final enthalpy =    -318.4826021538 Ry
Begin final coordinates
     new unit-cell volume =    366.79969 a.u.^3 (    54.35411 Ang^3 )
     density =      7.25327 g/cm^3

CELL_PARAMETERS (alat= 11.23746432)
   0.986020471  -0.000000000  -0.000000000
  -0.000000000   0.986020471  -0.000000000
   0.493010235   0.493010235   0.265859460

ATOMIC_POSITIONS (crystal)
Sn       0.625000000   0.875000000   0.750000000
Sn       0.375000000   0.125000000   0.250000000
End final coordinates

     A final scf calculation at the relaxed structure.
     The G-vectors are recalculated for the final unit cell
     Results may differ from those at the preceding step.

     bravais-lattice index     =            0
     lattice parameter (alat)  =      11.2375  a.u.
     unit-cell volume          =     366.7997 (a.u.)^3
     number of atoms/cell      =            2
     number of atomic types    =            1
     number of electrons       =        28.00
     number of Kohn-Sham states=           18
     kinetic-energy cutoff     =      50.0000  Ry
     charge density cutoff     =     500.0000  Ry
     convergence threshold     =      1.0E-08
     mixing beta               =       0.7000
     number of iterations used =            8  plain     mixing
     Exchange-correlation      =  SLA  PW   PBX  PBC ( 1  4  3  4 0 0)

     celldm(1)=  11.237464  celldm(2)=   0.000000  celldm(3)=   0.000000
     celldm(4)=   0.000000  celldm(5)=   0.000000  celldm(6)=   0.000000

     crystal axes: (cart. coord. in units of alat)
               a(1) = (   0.986020  -0.000000  -0.000000 )
               a(2) = (  -0.000000   0.986020  -0.000000 )
               a(3) = (   0.493010   0.493010   0.265859 )

     reciprocal axes: (cart. coord. in units 2 pi/alat)
               b(1) = (  1.014178  0.000000 -1.880693 )
               b(2) = (  0.000000  1.014178 -1.880693 )
               b(3) = (  0.000000  0.000000  3.761386 )

     PseudoPot. # 1 for Sn read from file:
     /home/s1333534/quantum_espresso/qe-6.1/pseudo/sn_pbe_v1.4.uspp.F.UPF
     MD5 check sum: 469debedee59599fedebd795477fea03
     Pseudo is Ultrasoft + core correction, Zval = 14.0
     Generated by new atomic code, or converted to UPF format
     Using radial grid of  891 points,  6 beta functions with:
                l(1) =   0
                l(2) =   0
                l(3) =   1
                l(4) =   1
                l(5) =   2
                l(6) =   2
     Q(r) pseudized with  8 coefficients,  rinner =    1.350   1.350   1.350
                                                       1.350   1.350

     atomic species   valence    mass     pseudopotential
        Sn            14.00   118.71000     Sn( 1.00)

     16 Sym. Ops., with inversion, found (12 have fractional translation)

   Cartesian axes

     site n.     atom                  positions (alat units)
         1           Sn  tau(   1) = (   0.9860205   1.2325256   0.1993946  )
         2           Sn  tau(   2) = (   0.4930102   0.2465051   0.0664649  )

     number of k points=   687  Marzari-Vanderbilt smearing, width (Ry)=  0.0200

     Number of k-points >= 100: set verbosity='high' to print them.

     Initial potential from superposition of free atoms

     starting charge   25.99991, renormalised to   28.00000
     Starting wfc are   18 randomized atomic wfcs

     Writing output data file sn.beta.relax.save

     Self-consistent Calculation

     iteration #  1     ecut=    50.00 Ry     beta=0.70
     Davidson diagonalization with overlap
     c_bands:  1 eigenvalues not converged
     c_bands:  1 eigenvalues not converged
     c_bands:  1 eigenvalues not converged
     c_bands:  1 eigenvalues not converged
     c_bands:  1 eigenvalues not converged
     c_bands:  1 eigenvalues not converged
     c_bands:  1 eigenvalues not converged
     c_bands:  2 eigenvalues not converged
     c_bands:  1 eigenvalues not converged
     ethr =  1.00E-06,  avg # of iterations = 11.0

[...]

     total energy              =    -318.48260198 Ry
     Harris-Foulkes estimate   =    -318.48260190 Ry
     estimated scf accuracy    <       0.00000013 Ry

     iteration #  6     ecut=    50.00 Ry     beta=0.70
     Davidson diagonalization with overlap
     ethr =  4.63E-10,  avg # of iterations =  3.9

     End of self-consistent calculation

     Number of k-points >= 100: set verbosity='high' to print the bands.

     the Fermi energy is    10.7197 ev

!    total energy              =    -318.48260215 Ry
     Harris-Foulkes estimate   =    -318.48260215 Ry
     estimated scf accuracy    <          7.8E-09 Ry

     The total energy is the sum of the following terms:

     one-electron contribution =    -111.35851416 Ry
     hartree contribution      =      76.10433626 Ry
     xc contribution           =     -86.02596380 Ry
     ewald contribution        =    -197.20263782 Ry
     smearing contrib. (-TS)   =       0.00017737 Ry

     convergence has been achieved in   6 iterations

     Forces acting on atoms (cartesian axes, Ry/au):

     atom    1 type  1   force =     0.00000000    0.00000000    0.00000000
     atom    2 type  1   force =     0.00000000    0.00000000   -0.00000000

     Total force =     0.000000     Total SCF correction =     0.000000

     Computing stress (Cartesian axis) and pressure

          total   stress  (Ry/bohr**3)                   (kbar)     P=    0.87
   0.00000598   0.00000000   0.00000000          0.88      0.00      0.00
   0.00000000   0.00000598   0.00000000          0.00      0.88      0.00
   0.00000000   0.00000000   0.00000587          0.00      0.00      0.86

     Writing output data file sn.beta.relax.save

     General routines

     Parallel routines

   This run was terminated on:  19:33:27   6Dec2017

   JOB DONE.