     Program PWSCF v.6.1 (svn rev. 13369) starts on 21Nov2017 at 19:14:46

     Current dimensions of program PWSCF are:
     Max number of different atomic species (ntypx) = 10
     Max number of k-points (npk) =  40000
     Max angular momentum in pseudopotentials (lmaxx) =  3

     Subspace diagonalization in iterative solution of the eigenvalue problem:
     a serial algorithm will be used

   Info: using nr1, nr2, nr3 values from input

     bravais-lattice index     =            0
     lattice parameter (alat)  =      11.2375  a.u.
     unit-cell volume          =     394.0293 (a.u.)^3
     number of atoms/cell      =            2
     number of atomic types    =            1
     number of electrons       =        28.00
     number of Kohn-Sham states=           18
     kinetic-energy cutoff     =      50.0000  Ry
     charge density cutoff     =     500.0000  Ry
     convergence threshold     =      1.0E-08
     mixing beta               =       0.7000
     number of iterations used =            8  plain     mixing
     Exchange-correlation      =  SLA  PW   PBX  PBC ( 1  4  3  4 0 0)
     nstep                     =           50

     celldm(1)=  11.237464  celldm(2)=   0.000000  celldm(3)=   0.000000
     celldm(4)=   0.000000  celldm(5)=   0.000000  celldm(6)=   0.000000

     crystal axes: (cart. coord. in units of alat)
               a(1) = (   1.009693   0.000000  -0.000000 )
               a(2) = (  -0.000000   1.009693  -0.000000 )
               a(3) = (   0.504847   0.504847   0.272361 )

     reciprocal axes: (cart. coord. in units 2 pi/alat)
               b(1) = (  0.990400  0.000000 -1.835800 )
               b(2) = ( -0.000000  0.990400 -1.835800 )
               b(3) = (  0.000000  0.000000  3.671600 )

     PseudoPot. # 1 for Sn read from file:
     /home/s1333534/quantum_espresso/qe-6.1/pseudo/sn_pbe_v1.4.uspp.F.UPF
     MD5 check sum: 469debedee59599fedebd795477fea03
     Pseudo is Ultrasoft + core correction, Zval = 14.0
     Generated by new atomic code, or converted to UPF format
     Using radial grid of  891 points,  6 beta functions with:
                l(1) =   0
                l(2) =   0
                l(3) =   1
                l(4) =   1
                l(5) =   2
                l(6) =   2
     Q(r) pseudized with  8 coefficients,  rinner =    1.350   1.350   1.350
                                                       1.350   1.350

     atomic species   valence    mass     pseudopotential
        Sn            14.00   118.71000     Sn( 1.00)

     16 Sym. Ops., with inversion, found (12 have fractional translation)

   Cartesian axes

     site n.     atom                  positions (alat units)
         1           Sn  tau(   1) = (   1.0096932   1.2621165   0.2042706  )
         2           Sn  tau(   2) = (   0.5048466   0.2524233   0.0680902  )

     number of k points=   687  Marzari-Vanderbilt smearing, width (Ry)=  0.0200

     Number of k-points >= 100: set verbosity='high' to print them.

     Initial potential from superposition of free atoms

     starting charge   25.99991, renormalised to   28.00000
     Starting wfc are   18 randomized atomic wfcs

     Self-consistent Calculation

     iteration #  1     ecut=    50.00 Ry     beta=0.70
     Davidson diagonalization with overlap
     ethr =  1.00E-02,  avg # of iterations =  3.4

     total energy              =    -317.54952816 Ry
     Harris-Foulkes estimate   =    -319.51674561 Ry
     estimated scf accuracy    <       2.40891323 Ry

[...]

     End of self-consistent calculation

     Number of k-points >= 100: set verbosity='high' to print the bands.

     the Fermi energy is     9.6747 ev

!    total energy              =    -318.48324367 Ry
     Harris-Foulkes estimate   =    -318.48324367 Ry
     estimated scf accuracy    <          6.3E-09 Ry

     The total energy is the sum of the following terms:

     one-electron contribution =    -118.74007174 Ry
     hartree contribution      =      78.75597299 Ry
     xc contribution           =     -85.94780890 Ry
     ewald contribution        =    -192.55151915 Ry
     smearing contrib. (-TS)   =       0.00018312 Ry

     convergence has been achieved in   6 iterations

     Forces acting on atoms (cartesian axes, Ry/au):

     atom    1 type  1   force =     0.00000000    0.00000000   -0.00000000
     atom    2 type  1   force =     0.00000000    0.00000000   -0.00000000

     Total force =     0.000000     Total SCF correction =     0.000000

     Computing stress (Cartesian axis) and pressure

          total   stress  (Ry/bohr**3)                   (kbar)     P=  -33.19
  -0.00022554   0.00000000   0.00000000        -33.18      0.00      0.00
   0.00000000  -0.00022554   0.00000000          0.00    -33.18      0.00
   0.00000000   0.00000000  -0.00022573          0.00      0.00    -33.21

     BFGS Geometry Optimization

     number of scf cycles    =   1
     number of bfgs steps    =   0

     enthalpy new            =    -318.4832436661 Ry

     new trust radius        =       0.0224041835 bohr
     new conv_thr            =       0.0000000100 Ry

     new unit-cell volume =    387.39964 a.u.^3 (    57.40670 Ang^3 )
     density =      6.86758 g/cm^3

CELL_PARAMETERS (alat= 11.23746432)
   1.004000004   0.000000000   0.000000000
  -0.000000000   1.004000004   0.000000000
   0.502000002   0.502000002   0.270823788

ATOMIC_POSITIONS (crystal)
Sn       0.625000000   0.875000000   0.750000000
Sn       0.375000000   0.125000000   0.250000000

     Writing output data file sn.beta.relax.save
     NEW-OLD atomic charge density approx. for the potential
     extrapolated charge   27.55506, renormalised to   28.00000

[...]

     enthalpy old            =    -318.4832436661 Ry
     enthalpy new            =    -318.4846265870 Ry

     CASE: enthalpy_new < enthalpy_old

     WARNING: bfgs curvature condition failed, Theta= 0.992
     new trust radius        =       0.0335114761 bohr
     new conv_thr            =            1.0E-10 Ry

[...]

     number of scf cycles    =   4
     number of bfgs steps    =   3

     enthalpy old            =    -318.4859833200 Ry
     enthalpy new            =    -318.4863886349 Ry

     CASE: enthalpy_new < enthalpy_old

     new trust radius        =       0.0028047175 bohr
     new conv_thr            =            1.0E-10 Ry

     new unit-cell volume =    368.97195 a.u.^3 (    54.67600 Ang^3 )
     density =      7.21057 g/cm^3

[...]

ATOMIC_POSITIONS (crystal)
Sn       0.625000000   0.875000000   0.750000000
Sn       0.375000000   0.125000000   0.250000000

     Writing output data file sn.beta.relax.save
     NEW-OLD atomic charge density approx. for the potential
     extrapolated charge   28.05617, renormalised to   28.00000

[...]

     bfgs converged in   5 scf cycles and   4 bfgs steps
     (criteria: energy <  1.0E-04 Ry, force <  1.0E-03Ry/Bohr, cell <  5.0E-01kbar)

     End of BFGS Geometry Optimization

     Final enthalpy =    -318.4863925299 Ry
Begin final coordinates
     new unit-cell volume =    368.97195 a.u.^3 (    54.67600 Ang^3 )
     density =      7.21057 g/cm^3

CELL_PARAMETERS (alat= 11.23746432)
   0.987868557  -0.000000000   0.000000000
   0.000000000   0.987868557   0.000000000
   0.493934278   0.493934278   0.266434248

ATOMIC_POSITIONS (crystal)
Sn       0.625000000   0.875000000   0.750000000
Sn       0.375000000   0.125000000   0.250000000
End final coordinates

     A final scf calculation at the relaxed structure.
     The G-vectors are recalculated for the final unit cell
     Results may differ from those at the preceding step.

     bravais-lattice index     =            0
     lattice parameter (alat)  =      11.2375  a.u.
     unit-cell volume          =     368.9719 (a.u.)^3
     number of atoms/cell      =            2
     number of atomic types    =            1
     number of electrons       =        28.00
     number of Kohn-Sham states=           18
     kinetic-energy cutoff     =      50.0000  Ry
     charge density cutoff     =     500.0000  Ry
     convergence threshold     =      1.0E-10
     mixing beta               =       0.7000
     number of iterations used =            8  plain     mixing
     Exchange-correlation      =  SLA  PW   PBX  PBC ( 1  4  3  4 0 0)

     celldm(1)=  11.237464  celldm(2)=   0.000000  celldm(3)=   0.000000
     celldm(4)=   0.000000  celldm(5)=   0.000000  celldm(6)=   0.000000

     crystal axes: (cart. coord. in units of alat)
               a(1) = (   0.987869  -0.000000   0.000000 )
               a(2) = (   0.000000   0.987869   0.000000 )
               a(3) = (   0.493934   0.493934   0.266434 )

     reciprocal axes: (cart. coord. in units 2 pi/alat)
               b(1) = (  1.012280  0.000000 -1.876636 )
               b(2) = (  0.000000  1.012280 -1.876636 )
               b(3) = ( -0.000000 -0.000000  3.753271 )

     PseudoPot. # 1 for Sn read from file:
     /home/s1333534/quantum_espresso/qe-6.1/pseudo/sn_pbe_v1.4.uspp.F.UPF
     MD5 check sum: 469debedee59599fedebd795477fea03
     Pseudo is Ultrasoft + core correction, Zval = 14.0
     Generated by new atomic code, or converted to UPF format
     Using radial grid of  891 points,  6 beta functions with:
                l(1) =   0
                l(2) =   0
                l(3) =   1
                l(4) =   1
                l(5) =   2
                l(6) =   2
     Q(r) pseudized with  8 coefficients,  rinner =    1.350   1.350   1.350
                                                       1.350   1.350

     atomic species   valence    mass     pseudopotential
        Sn            14.00   118.71000     Sn( 1.00)

     16 Sym. Ops., with inversion, found (12 have fractional translation)

   Cartesian axes

     site n.     atom                  positions (alat units)
         1           Sn  tau(   1) = (   0.9878686   1.2348357   0.1998257  )
         2           Sn  tau(   2) = (   0.4939343   0.2469671   0.0666086  )

     number of k points=   687  Marzari-Vanderbilt smearing, width (Ry)=  0.0200

     Number of k-points >= 100: set verbosity='high' to print them.

     Initial potential from superposition of free atoms

     starting charge   25.99991, renormalised to   28.00000
     Starting wfc are   18 randomized atomic wfcs

     Writing output data file sn.beta.relax.save

     Self-consistent Calculation

     iteration #  1     ecut=    50.00 Ry     beta=0.70
     Davidson diagonalization with overlap
     c_bands:  1 eigenvalues not converged
     c_bands:  1 eigenvalues not converged
     c_bands:  1 eigenvalues not converged
     c_bands:  1 eigenvalues not converged
     c_bands:  1 eigenvalues not converged
     c_bands:  1 eigenvalues not converged
     c_bands:  1 eigenvalues not converged
     c_bands:  1 eigenvalues not converged
     c_bands:  1 eigenvalues not converged
     c_bands:  1 eigenvalues not converged
     c_bands:  1 eigenvalues not converged
     c_bands:  1 eigenvalues not converged
     ethr =  1.00E-06,  avg # of iterations = 11.1

[...]

     total energy              =    -318.48290964 Ry
     Harris-Foulkes estimate   =    -318.48290964 Ry
     estimated scf accuracy    <          8.0E-09 Ry

     iteration #  7     ecut=    50.00 Ry     beta=0.70
     Davidson diagonalization with overlap
     ethr =  2.87E-11,  avg # of iterations =  2.2

     End of self-consistent calculation

     Number of k-points >= 100: set verbosity='high' to print the bands.

     the Fermi energy is    10.6306 ev

!    total energy              =    -318.48290964 Ry
     Harris-Foulkes estimate   =    -318.48290964 Ry
     estimated scf accuracy    <          4.2E-11 Ry

     The total energy is the sum of the following terms:

     one-electron contribution =    -111.97101896 Ry
     hartree contribution      =      76.32215467 Ry
     xc contribution           =     -86.01912584 Ry
     ewald contribution        =    -196.81509751 Ry
     smearing contrib. (-TS)   =       0.00017799 Ry

     convergence has been achieved in   7 iterations

     Forces acting on atoms (cartesian axes, Ry/au):

     atom    1 type  1   force =    -0.00000000   -0.00000000    0.00000000
     atom    2 type  1   force =     0.00000000    0.00000000   -0.00000000

     Total force =     0.000000     Total SCF correction =     0.000000

     Computing stress (Cartesian axis) and pressure

          total   stress  (Ry/bohr**3)                   (kbar)     P=   -3.83
  -0.00002558  -0.00000000   0.00000000         -3.76     -0.00      0.00
  -0.00000000  -0.00002558   0.00000000         -0.00     -3.76      0.00
   0.00000000   0.00000000  -0.00002699          0.00      0.00     -3.97

     Writing output data file sn.beta.relax.save

     General routines

     Parallel routines

   This run was terminated on:  20:39:40  21Nov2017

   JOB DONE.