     Program PWSCF v.6.1 (svn rev. 13369) starts on 12Nov2017 at 14:18:54

     Current dimensions of program PWSCF are:
     Max number of different atomic species (ntypx) = 10
     Max number of k-points (npk) =  40000
     Max angular momentum in pseudopotentials (lmaxx) =  3

     Subspace diagonalization in iterative solution of the eigenvalue problem:
     a serial algorithm will be used

     warning: symmetry operation #  2 not compatible with FFT grid.
  -1   0   0
   0  -1   0
  -1  -1   1
     warning: symmetry operation #  3 not compatible with FFT grid.
  -1   0   0
   0   1   0
   0   1  -1
     warning: symmetry operation #  4 not compatible with FFT grid.
   1   0   0
   0  -1   0
   1   0  -1
     warning: symmetry operation #  5 not compatible with FFT grid.
   0   1   0
   1   0   0
   1   1  -1
     warning: symmetry operation #  7 not compatible with FFT grid.
   0  -1   0
   1   0   0
   0  -1   1
     warning: symmetry operation #  8 not compatible with FFT grid.
   0   1   0
  -1   0   0
  -1   0   1
     warning: symmetry operation # 10 not compatible with FFT grid.
   1   0   0
   0   1   0
   1   1  -1
     warning: symmetry operation # 11 not compatible with FFT grid.
   1   0   0
   0  -1   0
   0  -1   1
     warning: symmetry operation # 12 not compatible with FFT grid.
  -1   0   0
   0   1   0
  -1   0   1
     warning: symmetry operation # 13 not compatible with FFT grid.
   0  -1   0
  -1   0   0
  -1  -1   1
     warning: symmetry operation # 15 not compatible with FFT grid.
   0   1   0
  -1   0   0
   0   1  -1
     warning: symmetry operation # 16 not compatible with FFT grid.
   0  -1   0
   1   0   0
   1   0  -1

     bravais-lattice index     =            0
     lattice parameter (alat)  =      11.2375  a.u.
     unit-cell volume          =     394.0293 (a.u.)^3
     number of atoms/cell      =            2
     number of atomic types    =            1
     number of electrons       =        28.00
     number of Kohn-Sham states=           18
     kinetic-energy cutoff     =      50.0000  Ry
     charge density cutoff     =     500.0000  Ry
     convergence threshold     =      1.0E-08
     mixing beta               =       0.7000
     number of iterations used =            8  plain     mixing
     Exchange-correlation      =  SLA  PW   PBX  PBC ( 1  4  3  4 0 0)
     nstep                     =           50

     celldm(1)=  11.237464  celldm(2)=   0.000000  celldm(3)=   0.000000
     celldm(4)=   0.000000  celldm(5)=   0.000000  celldm(6)=   0.000000

     crystal axes: (cart. coord. in units of alat)
               a(1) = (   1.009693   0.000000  -0.000000 )
               a(2) = (  -0.000000   1.009693  -0.000000 )
               a(3) = (   0.504847   0.504847   0.272361 )

     reciprocal axes: (cart. coord. in units 2 pi/alat)
               b(1) = (  0.990400  0.000000 -1.835800 )
               b(2) = ( -0.000000  0.990400 -1.835800 )
               b(3) = (  0.000000  0.000000  3.671600 )

     PseudoPot. # 1 for Sn read from file:
     /home/s1333534/quantum_espresso/qe-6.1/pseudo/sn_pbe_v1.4.uspp.F.UPF
     MD5 check sum: 469debedee59599fedebd795477fea03
     Pseudo is Ultrasoft + core correction, Zval = 14.0
     Generated by new atomic code, or converted to UPF format
     Using radial grid of  891 points,  6 beta functions with:
                l(1) =   0
                l(2) =   0
                l(3) =   1
                l(4) =   1
                l(5) =   2
                l(6) =   2
     Q(r) pseudized with  8 coefficients,  rinner =    1.350   1.350   1.350
                                                       1.350   1.350

     atomic species   valence    mass     pseudopotential
        Sn            14.00   118.71000     Sn( 1.00)

      2 Sym. Ops., with inversion, found
          (note: 12 additional sym.ops. were found but ignored
           their fractional translations are incommensurate with FFT grid)

   Cartesian axes

     site n.     atom                  positions (alat units)
         1           Sn  tau(   1) = (   1.0096932   1.2621165   0.2042706  )
         2           Sn  tau(   2) = (   0.5048466   0.2524233   0.0680902  )

     number of k points=  1568  Marzari-Vanderbilt smearing, width (Ry)=  0.0200

     Number of k-points >= 100: set verbosity='high' to print them.

     Initial potential from superposition of free atoms

     starting charge   25.99991, renormalised to   28.00000
     Starting wfc are   18 randomized atomic wfcs

     Self-consistent Calculation

     iteration #  1     ecut=    50.00 Ry     beta=0.70
     Davidson diagonalization with overlap
     ethr =  1.00E-02,  avg # of iterations =  3.4

     total energy              =    -317.55055234 Ry
     Harris-Foulkes estimate   =    -319.51750129 Ry
     estimated scf accuracy    <       2.40852861 Ry

[...]

     End of self-consistent calculation

     Number of k-points >= 100: set verbosity='high' to print the bands.

     the Fermi energy is     9.6458 ev

!    total energy              =    -318.48395969 Ry
     Harris-Foulkes estimate   =    -318.48395969 Ry
     estimated scf accuracy    <          6.2E-09 Ry

     The total energy is the sum of the following terms:

     one-electron contribution =    -118.73785793 Ry
     hartree contribution      =      78.75259684 Ry
     xc contribution           =     -85.94743359 Ry
     ewald contribution        =    -192.55151915 Ry
     smearing contrib. (-TS)   =       0.00025414 Ry

     convergence has been achieved in   6 iterations

     Forces acting on atoms (cartesian axes, Ry/au):

     atom    1 type  1   force =    -0.00001454    0.00001579    0.00000018
     atom    2 type  1   force =     0.00001454   -0.00001579   -0.00000018

     Total force =     0.000030     Total SCF correction =     0.000039
     SCF correction compared to forces is large: reduce conv_thr to get better values

     Computing stress (Cartesian axis) and pressure

          total   stress  (Ry/bohr**3)                   (kbar)     P=  -33.77
  -0.00023617  -0.00000000   0.00000000        -34.74     -0.00      0.00
  -0.00000000  -0.00023617   0.00000000         -0.00    -34.74      0.00
   0.00000000   0.00000000  -0.00021640          0.00      0.00    -31.83

     BFGS Geometry Optimization

     number of scf cycles    =   1
     number of bfgs steps    =   0

     enthalpy new            =    -318.4839596874 Ry

     new trust radius        =       0.0234404389 bohr
     new conv_thr            =       0.0000000100 Ry

     new unit-cell volume =    387.28339 a.u.^3 (    57.38948 Ang^3 )
     density =      6.86964 g/cm^3

CELL_PARAMETERS (alat= 11.23746432)
   1.003731642  -0.000000005   0.000000031
  -0.000000005   1.003731653   0.000000037
   0.501865827   0.501865834   0.270887340

ATOMIC_POSITIONS (crystal)
Sn       0.624998690   0.875001363   0.750000058
Sn       0.375001310   0.124998637   0.249999942

     Writing output data file sn.beta.relax.save
     NEW-OLD atomic charge density approx. for the potential
     extrapolated charge   27.54712, renormalised to   28.00000

[...]

     Total force =     0.000003     Total SCF correction =     0.000000

[...]

     enthalpy old            =    -318.4839596874 Ry
     enthalpy new            =    -318.4853917685 Ry

     CASE: enthalpy_new < enthalpy_old

[...]

     number of scf cycles    =   4
     number of bfgs steps    =   3

     enthalpy old            =    -318.4867917056 Ry
     enthalpy new            =    -318.4871890813 Ry

     CASE: enthalpy_new < enthalpy_old

     new trust radius        =       0.0044369112 bohr
     new conv_thr            =            1.0E-10 Ry

     new unit-cell volume =    368.72457 a.u.^3 (    54.63934 Ang^3 )
     density =      7.21541 g/cm^3

[...]

ATOMIC_POSITIONS (crystal)
Sn       0.624999348   0.875000544   0.750000157
Sn       0.375000652   0.124999456   0.249999843

     Writing output data file sn.beta.relax.save
     NEW-OLD atomic charge density approx. for the potential
     extrapolated charge   28.08966, renormalised to   28.00000

[...]

     Total force =     0.000002     Total SCF correction =     0.000000

[...]

     bfgs converged in   5 scf cycles and   4 bfgs steps
     (criteria: energy <  1.0E-04 Ry, force <  1.0E-03Ry/Bohr, cell <  5.0E-01kbar)

     End of BFGS Geometry Optimization

     Final enthalpy =    -318.4872015293 Ry
Begin final coordinates
     new unit-cell volume =    368.72457 a.u.^3 (    54.63934 Ang^3 )
     density =      7.21541 g/cm^3

CELL_PARAMETERS (alat= 11.23746432)
   0.986837306   0.000000034   0.000000154
   0.000000034   0.986837346   0.000000141
   0.493418711   0.493418728   0.266812519

ATOMIC_POSITIONS (crystal)
Sn       0.624999348   0.875000544   0.750000157
Sn       0.375000652   0.124999456   0.249999843
End final coordinates

     A final scf calculation at the relaxed structure.
     The G-vectors are recalculated for the final unit cell
     Results may differ from those at the preceding step.

     bravais-lattice index     =            0
     lattice parameter (alat)  =      11.2375  a.u.
     unit-cell volume          =     368.7246 (a.u.)^3
     number of atoms/cell      =            2
     number of atomic types    =            1
     number of electrons       =        28.00
     number of Kohn-Sham states=           18
     kinetic-energy cutoff     =      50.0000  Ry
     charge density cutoff     =     500.0000  Ry
     convergence threshold     =      1.0E-10
     mixing beta               =       0.7000
     number of iterations used =            8  plain     mixing
     Exchange-correlation      =  SLA  PW   PBX  PBC ( 1  4  3  4 0 0)

     celldm(1)=  11.237464  celldm(2)=   0.000000  celldm(3)=   0.000000
     celldm(4)=   0.000000  celldm(5)=   0.000000  celldm(6)=   0.000000

     crystal axes: (cart. coord. in units of alat)
               a(1) = (   0.986837   0.000000   0.000000 )
               a(2) = (   0.000000   0.986837   0.000000 )
               a(3) = (   0.493419   0.493419   0.266813 )

     reciprocal axes: (cart. coord. in units 2 pi/alat)
               b(1) = (  1.013339  0.000000 -1.873976 )
               b(2) = (  0.000000  1.013338 -1.873976 )
               b(3) = ( -0.000001 -0.000001  3.747952 )

     PseudoPot. # 1 for Sn read from file:
     /home/s1333534/quantum_espresso/qe-6.1/pseudo/sn_pbe_v1.4.uspp.F.UPF
     MD5 check sum: 469debedee59599fedebd795477fea03
     Pseudo is Ultrasoft + core correction, Zval = 14.0
     Generated by new atomic code, or converted to UPF format
     Using radial grid of  891 points,  6 beta functions with:
                l(1) =   0
                l(2) =   0
                l(3) =   1
                l(4) =   1
                l(5) =   2
                l(6) =   2
     Q(r) pseudized with  8 coefficients,  rinner =    1.350   1.350   1.350
                                                       1.350   1.350

     atomic species   valence    mass     pseudopotential
        Sn            14.00   118.71000     Sn( 1.00)

      2 Sym. Ops., with inversion, found
          (note: 12 additional sym.ops. were found but ignored
           their fractional translations are incommensurate with FFT grid)

   Cartesian axes

     site n.     atom                  positions (alat units)
         1           Sn  tau(   1) = (   0.9868368   1.2335474   0.2001097  )
         2           Sn  tau(   2) = (   0.4934192   0.2467087   0.0667032  )

     number of k points=  1568  Marzari-Vanderbilt smearing, width (Ry)=  0.0200

     Number of k-points >= 100: set verbosity='high' to print them.

     Initial potential from superposition of free atoms

     starting charge   25.99991, renormalised to   28.00000
     Starting wfc are   18 randomized atomic wfcs

     Writing output data file sn.beta.relax.save

     Self-consistent Calculation

     iteration #  1     ecut=    50.00 Ry     beta=0.70
     Davidson diagonalization with overlap
     c_bands:  1 eigenvalues not converged
     c_bands:  1 eigenvalues not converged
     c_bands:  1 eigenvalues not converged
     c_bands:  1 eigenvalues not converged
     c_bands:  1 eigenvalues not converged
     c_bands:  1 eigenvalues not converged
     c_bands:  1 eigenvalues not converged
     c_bands:  1 eigenvalues not converged
     c_bands:  1 eigenvalues not converged
     c_bands:  1 eigenvalues not converged
     c_bands:  1 eigenvalues not converged
     c_bands:  1 eigenvalues not converged
     c_bands:  1 eigenvalues not converged
     c_bands:  1 eigenvalues not converged
     c_bands:  1 eigenvalues not converged
     ethr =  1.00E-06,  avg # of iterations = 11.2

[...]

     total energy              =    -318.48369153 Ry
     Harris-Foulkes estimate   =    -318.48369153 Ry
     estimated scf accuracy    <          7.9E-09 Ry

     iteration #  7     ecut=    50.00 Ry     beta=0.70
     Davidson diagonalization with overlap
     ethr =  2.81E-11,  avg # of iterations =  2.1

     End of self-consistent calculation

     Number of k-points >= 100: set verbosity='high' to print the bands.

     the Fermi energy is    10.6103 ev

!    total energy              =    -318.48369153 Ry
     Harris-Foulkes estimate   =    -318.48369153 Ry
     estimated scf accuracy    <          4.3E-11 Ry

     The total energy is the sum of the following terms:

     one-electron contribution =    -111.89694875 Ry
     hartree contribution      =      76.29351762 Ry
     xc contribution           =     -86.01965365 Ry
     ewald contribution        =    -196.86072466 Ry
     smearing contrib. (-TS)   =       0.00011792 Ry

     convergence has been achieved in   7 iterations

     Forces acting on atoms (cartesian axes, Ry/au):

     atom    1 type  1   force =     0.00000089    0.00000137    0.00000063
     atom    2 type  1   force =    -0.00000089   -0.00000137   -0.00000063

     Total force =     0.000002     Total SCF correction =     0.000004
     SCF correction compared to forces is large: reduce conv_thr to get better values

     Computing stress (Cartesian axis) and pressure

          total   stress  (Ry/bohr**3)                   (kbar)     P=   -3.85
  -0.00002818  -0.00000000  -0.00000000         -4.15     -0.00     -0.00
  -0.00000000  -0.00002818  -0.00000000         -0.00     -4.15     -0.00
  -0.00000000  -0.00000000  -0.00002216         -0.00     -0.00     -3.26

     Writing output data file sn.beta.relax.save

     General routines

     Parallel routines

   This run was terminated on:  17:19: 6  12Nov2017

   JOB DONE.